Instance name:    bar-n100-3
Authors:          PDPTW Solver
Date:             2025-11-20
Reference:        LNS with SA/RTR
Solution
Route 1 : 23 73 40 30 80 50 90 2 52 22 100 12 62 72 17 67
Route 2 : 26 31 36 81 76 13 63 19 69 10 86 60 34 41 84 16 66 91 6 56
Route 3 : 1 5 51 39 89 33 49 99 45 83 43 55 93 95
Route 4 : 20 24 74 70 37 25 75 29 87 48 79 28 98 78 15 65
Route 5 : 44 11 4 61 3 94 21 14 53 54 71 7 27 77 57 64
Route 6 : 47 38 88 32 82 97 8 35 9 59 85 46 58 18 42 92 96 68
